\ This file was automatically generated by Zimpl
\ set PEOPLE := {"Andrew", "Auston", "Jeff",   "Vera", "John", "Fengyan", "Sikdar"};
\ set INSTRUCTORS := {"John", "Fengyan", "Sikdar"};
\ set EXAMS[PEOPLE] :=  <"Andrew"> {"SDD", "CCN"}, <"Auston"> {"SDD"},   <"Jeff"> {"SDD", "CCN"}, <"Vera"> {"SDD", "CLA"}, <"Jo
\ hn"> {"SDD"},    <"Fengyan"> {"CLA"}, <"Sikdar"> {"CCN"} ;
\ set ALL_EXAMS := union <p> in PEOPLE : EXAMS[p];
\ set TSLOT := {1..8};
\ set DAYS := { 1..2 };
\ set DAYSLOT [DAYS] := <1> {1..4}, <2> {5..8};
\ var examIsAt [<e,t> in ALL_EXAMS cross TSLOT] binary;
\ var twoPlus[<p> in PEOPLE] binary;
\ var threePlus[<p> in PEOPLE] binary;
\ var conflict [<t,p> in TSLOT cross PEOPLE] >= 0;
\ minimize badConflicts:      sum <p> in PEOPLE : threePlus[p]  +  sum <t> in TSLOT : (sum<p> in PEOPLE : conflict[t,p]);
\ subto time:   forall <e> in ALL_EXAMS do   sum<t> in TSLOT : examIsAt [e,t] == 1;
\ subto penalizeConflicts:  forall <t,p> in TSLOT cross PEOPLE do    -conflict[t,p] + (sum <e> in EXAMS[p]: examIsAt[e,t]) <= 1
\ ;
\ subto overload:   forall <p,d> in PEOPLE cross DAYS do   sum <e> in EXAMS[p]:     (sum <t> in DAYSLOT[d]: examIsAt [e,t] - tw
\ oPlus[p] - threePlus[p]) <= 1;
\Problem name: roughZIMPLmodel.zpl
Minimize
 badConflicts:  + threePlus$Andrew + threePlus$Auston + threePlus$Jeff + threePlus$Vera + threePlus$John + threePlus$Fen@24
  + threePlus$Sikdar + conflict#1$An@26 + conflict#1$Au@27 + conflict#1$Jeff + conflict#1$Vera + conflict#1$John
  + conflict#1$Fe@2b + conflict#1$Si@2c + conflict#2$An@2d + conflict#2$Au@2e + conflict#2$Jeff + conflict#2$Vera
  + conflict#2$John + conflict#2$Fe@32 + conflict#2$Si@33 + conflict#3$An@34 + conflict#3$Au@35 + conflict#3$Jeff
  + conflict#3$Vera + conflict#3$John + conflict#3$Fe@39 + conflict#3$Si@3a + conflict#4$An@3b + conflict#4$Au@3c
  + conflict#4$Jeff + conflict#4$Vera + conflict#4$John + conflict#4$Fe@40 + conflict#4$Si@41 + conflict#5$An@42
  + conflict#5$Au@43 + conflict#5$Jeff + conflict#5$Vera + conflict#5$John + conflict#5$Fe@47 + conflict#5$Si@48
  + conflict#6$An@49 + conflict#6$Au@4a + conflict#6$Jeff + conflict#6$Vera + conflict#6$John + conflict#6$Fe@4e
  + conflict#6$Si@4f + conflict#7$An@50 + conflict#7$Au@51 + conflict#7$Jeff + conflict#7$Vera + conflict#7$John
  + conflict#7$Fe@55 + conflict#7$Si@56 + conflict#8$An@57 + conflict#8$Au@58 + conflict#8$Jeff + conflict#8$Vera
  + conflict#8$John + conflict#8$Fe@5c + conflict#8$Si@5d
Subject to
 time_1:
  + examIsAt$SDD#8 + examIsAt$SDD#7 + examIsAt$SDD#6 + examIsAt$SDD#5 + examIsAt$SDD#4 + examIsAt$SDD#3
  + examIsAt$SDD#2 + examIsAt$SDD#1 = 1
 time_2:
  + examIsAt$CCN#8 + examIsAt$CCN#7 + examIsAt$CCN#6 + examIsAt$CCN#5 + examIsAt$CCN#4 + examIsAt$CCN#3
  + examIsAt$CCN#2 + examIsAt$CCN#1 = 1
 time_3:
  + examIsAt$CLA#8 + examIsAt$CLA#7 + examIsAt$CLA#6 + examIsAt$CLA#5 + examIsAt$CLA#4 + examIsAt$CLA#3
  + examIsAt$CLA#2 + examIsAt$CLA#1 = 1
 penalizeConfli@3:
  + examIsAt$CCN#1 + examIsAt$SDD#1 - conflict#1$An@26 <= 1
 penalizeConfli@4:
  + examIsAt$SDD#1 - conflict#1$Au@27 <= 1
 penalizeConfli@5:
  + examIsAt$CCN#1 + examIsAt$SDD#1 - conflict#1$Jeff <= 1
 penalizeConfli@6:
  + examIsAt$CLA#1 + examIsAt$SDD#1 - conflict#1$Vera <= 1
 penalizeConfli@7:
  + examIsAt$SDD#1 - conflict#1$John <= 1
 penalizeConfli@8:
  + examIsAt$CLA#1 - conflict#1$Fe@2b <= 1
 penalizeConfli@9:
  + examIsAt$CCN#1 - conflict#1$Si@2c <= 1
 penalizeConfli@a:
  + examIsAt$CCN#2 + examIsAt$SDD#2 - conflict#2$An@2d <= 1
 penalizeConfli@b:
  + examIsAt$SDD#2 - conflict#2$Au@2e <= 1
 penalizeConfli@c:
  + examIsAt$CCN#2 + examIsAt$SDD#2 - conflict#2$Jeff <= 1
 penalizeConfli@d:
  + examIsAt$CLA#2 + examIsAt$SDD#2 - conflict#2$Vera <= 1
 penalizeConfli@e:
  + examIsAt$SDD#2 - conflict#2$John <= 1
 penalizeConfli@f:
  + examIsAt$CLA#2 - conflict#2$Fe@32 <= 1
 penalizeConfl@10:
  + examIsAt$CCN#2 - conflict#2$Si@33 <= 1
 penalizeConfl@11:
  + examIsAt$CCN#3 + examIsAt$SDD#3 - conflict#3$An@34 <= 1
 penalizeConfl@12:
  + examIsAt$SDD#3 - conflict#3$Au@35 <= 1
 penalizeConfl@13:
  + examIsAt$CCN#3 + examIsAt$SDD#3 - conflict#3$Jeff <= 1
 penalizeConfl@14:
  + examIsAt$CLA#3 + examIsAt$SDD#3 - conflict#3$Vera <= 1
 penalizeConfl@15:
  + examIsAt$SDD#3 - conflict#3$John <= 1
 penalizeConfl@16:
  + examIsAt$CLA#3 - conflict#3$Fe@39 <= 1
 penalizeConfl@17:
  + examIsAt$CCN#3 - conflict#3$Si@3a <= 1
 penalizeConfl@18:
  + examIsAt$CCN#4 + examIsAt$SDD#4 - conflict#4$An@3b <= 1
 penalizeConfl@19:
  + examIsAt$SDD#4 - conflict#4$Au@3c <= 1
 penalizeConfl@1a:
  + examIsAt$CCN#4 + examIsAt$SDD#4 - conflict#4$Jeff <= 1
 penalizeConfl@1b:
  + examIsAt$CLA#4 + examIsAt$SDD#4 - conflict#4$Vera <= 1
 penalizeConfl@1c:
  + examIsAt$SDD#4 - conflict#4$John <= 1
 penalizeConfl@1d:
  + examIsAt$CLA#4 - conflict#4$Fe@40 <= 1
 penalizeConfl@1e:
  + examIsAt$CCN#4 - conflict#4$Si@41 <= 1
 penalizeConfl@1f:
  + examIsAt$CCN#5 + examIsAt$SDD#5 - conflict#5$An@42 <= 1
 penalizeConfl@20:
  + examIsAt$SDD#5 - conflict#5$Au@43 <= 1
 penalizeConfl@21:
  + examIsAt$CCN#5 + examIsAt$SDD#5 - conflict#5$Jeff <= 1
 penalizeConfl@22:
  + examIsAt$CLA#5 + examIsAt$SDD#5 - conflict#5$Vera <= 1
 penalizeConfl@23:
  + examIsAt$SDD#5 - conflict#5$John <= 1
 penalizeConfl@24:
  + examIsAt$CLA#5 - conflict#5$Fe@47 <= 1
 penalizeConfl@25:
  + examIsAt$CCN#5 - conflict#5$Si@48 <= 1
 penalizeConfl@26:
  + examIsAt$CCN#6 + examIsAt$SDD#6 - conflict#6$An@49 <= 1
 penalizeConfl@27:
  + examIsAt$SDD#6 - conflict#6$Au@4a <= 1
 penalizeConfl@28:
  + examIsAt$CCN#6 + examIsAt$SDD#6 - conflict#6$Jeff <= 1
 penalizeConfl@29:
  + examIsAt$CLA#6 + examIsAt$SDD#6 - conflict#6$Vera <= 1
 penalizeConfl@2a:
  + examIsAt$SDD#6 - conflict#6$John <= 1
 penalizeConfl@2b:
  + examIsAt$CLA#6 - conflict#6$Fe@4e <= 1
 penalizeConfl@2c:
  + examIsAt$CCN#6 - conflict#6$Si@4f <= 1
 penalizeConfl@2d:
  + examIsAt$CCN#7 + examIsAt$SDD#7 - conflict#7$An@50 <= 1
 penalizeConfl@2e:
  + examIsAt$SDD#7 - conflict#7$Au@51 <= 1
 penalizeConfl@2f:
  + examIsAt$CCN#7 + examIsAt$SDD#7 - conflict#7$Jeff <= 1
 penalizeConfl@30:
  + examIsAt$CLA#7 + examIsAt$SDD#7 - conflict#7$Vera <= 1
 penalizeConfl@31:
  + examIsAt$SDD#7 - conflict#7$John <= 1
 penalizeConfl@32:
  + examIsAt$CLA#7 - conflict#7$Fe@55 <= 1
 penalizeConfl@33:
  + examIsAt$CCN#7 - conflict#7$Si@56 <= 1
 penalizeConfl@34:
  + examIsAt$CCN#8 + examIsAt$SDD#8 - conflict#8$An@57 <= 1
 penalizeConfl@35:
  + examIsAt$SDD#8 - conflict#8$Au@58 <= 1
 penalizeConfl@36:
  + examIsAt$CCN#8 + examIsAt$SDD#8 - conflict#8$Jeff <= 1
 penalizeConfl@37:
  + examIsAt$CLA#8 + examIsAt$SDD#8 - conflict#8$Vera <= 1
 penalizeConfl@38:
  + examIsAt$SDD#8 - conflict#8$John <= 1
 penalizeConfl@39:
  + examIsAt$CLA#8 - conflict#8$Fe@5c <= 1
 penalizeConfl@3a:
  + examIsAt$CCN#8 - conflict#8$Si@5d <= 1
 overload_1:
  + examIsAt$CCN#4 + examIsAt$CCN#3 + examIsAt$CCN#2 + examIsAt$CCN#1 -2 threePlus$Andrew -2 twoPlus$Andrew
  + examIsAt$SDD#4 + examIsAt$SDD#3 + examIsAt$SDD#2 + examIsAt$SDD#1 <= 1
 overload_2:
  + examIsAt$CCN#8 + examIsAt$CCN#7 + examIsAt$CCN#6 + examIsAt$CCN#5 -2 threePlus$Andrew -2 twoPlus$Andrew
  + examIsAt$SDD#8 + examIsAt$SDD#7 + examIsAt$SDD#6 + examIsAt$SDD#5 <= 1
 overload_3:
  - threePlus$Auston - twoPlus$Auston + examIsAt$SDD#4 + examIsAt$SDD#3 + examIsAt$SDD#2 + examIsAt$SDD#1
  <= 1
 overload_4:
  - threePlus$Auston - twoPlus$Auston + examIsAt$SDD#8 + examIsAt$SDD#7 + examIsAt$SDD#6 + examIsAt$SDD#5
  <= 1
 overload_5:
  + examIsAt$CCN#4 + examIsAt$CCN#3 + examIsAt$CCN#2 + examIsAt$CCN#1 -2 threePlus$Jeff -2 twoPlus$Jeff
  + examIsAt$SDD#4 + examIsAt$SDD#3 + examIsAt$SDD#2 + examIsAt$SDD#1 <= 1
 overload_6:
  + examIsAt$CCN#8 + examIsAt$CCN#7 + examIsAt$CCN#6 + examIsAt$CCN#5 -2 threePlus$Jeff -2 twoPlus$Jeff
  + examIsAt$SDD#8 + examIsAt$SDD#7 + examIsAt$SDD#6 + examIsAt$SDD#5 <= 1
 overload_7:
  + examIsAt$CLA#4 + examIsAt$CLA#3 + examIsAt$CLA#2 + examIsAt$CLA#1 -2 threePlus$Vera -2 twoPlus$Vera
  + examIsAt$SDD#4 + examIsAt$SDD#3 + examIsAt$SDD#2 + examIsAt$SDD#1 <= 1
 overload_8:
  + examIsAt$CLA#8 + examIsAt$CLA#7 + examIsAt$CLA#6 + examIsAt$CLA#5 -2 threePlus$Vera -2 twoPlus$Vera
  + examIsAt$SDD#8 + examIsAt$SDD#7 + examIsAt$SDD#6 + examIsAt$SDD#5 <= 1
 overload_9:
  - threePlus$John - twoPlus$John + examIsAt$SDD#4 + examIsAt$SDD#3 + examIsAt$SDD#2 + examIsAt$SDD#1
  <= 1
 overload_10:
  - threePlus$John - twoPlus$John + examIsAt$SDD#8 + examIsAt$SDD#7 + examIsAt$SDD#6 + examIsAt$SDD#5
  <= 1
 overload_11:
  - threePlus$Fen@24 - twoPlus$Fengyan + examIsAt$CLA#4 + examIsAt$CLA#3 + examIsAt$CLA#2 + examIsAt$CLA#1
  <= 1
 overload_12:
  - threePlus$Fen@24 - twoPlus$Fengyan + examIsAt$CLA#8 + examIsAt$CLA#7 + examIsAt$CLA#6 + examIsAt$CLA#5
  <= 1
 overload_13:
  - threePlus$Sikdar - twoPlus$Sikdar + examIsAt$CCN#4 + examIsAt$CCN#3 + examIsAt$CCN#2 + examIsAt$CCN#1
  <= 1
 overload_14:
  - threePlus$Sikdar - twoPlus$Sikdar + examIsAt$CCN#8 + examIsAt$CCN#7 + examIsAt$CCN#6 + examIsAt$CCN#5
  <= 1
Bounds
 0 <= examIsAt$SDD#1 <= 1
 0 <= examIsAt$SDD#2 <= 1
 0 <= examIsAt$SDD#3 <= 1
 0 <= examIsAt$SDD#4 <= 1
 0 <= examIsAt$SDD#5 <= 1
 0 <= examIsAt$SDD#6 <= 1
 0 <= examIsAt$SDD#7 <= 1
 0 <= examIsAt$SDD#8 <= 1
 0 <= examIsAt$CCN#1 <= 1
 0 <= examIsAt$CCN#2 <= 1
 0 <= examIsAt$CCN#3 <= 1
 0 <= examIsAt$CCN#4 <= 1
 0 <= examIsAt$CCN#5 <= 1
 0 <= examIsAt$CCN#6 <= 1
 0 <= examIsAt$CCN#7 <= 1
 0 <= examIsAt$CCN#8 <= 1
 0 <= examIsAt$CLA#1 <= 1
 0 <= examIsAt$CLA#2 <= 1
 0 <= examIsAt$CLA#3 <= 1
 0 <= examIsAt$CLA#4 <= 1
 0 <= examIsAt$CLA#5 <= 1
 0 <= examIsAt$CLA#6 <= 1
 0 <= examIsAt$CLA#7 <= 1
 0 <= examIsAt$CLA#8 <= 1
 0 <= twoPlus$Andrew <= 1
 0 <= twoPlus$Auston <= 1
 0 <= twoPlus$Jeff <= 1
 0 <= twoPlus$Vera <= 1
 0 <= twoPlus$John <= 1
 0 <= twoPlus$Fengyan <= 1
 0 <= twoPlus$Sikdar <= 1
 0 <= threePlus$Andrew <= 1
 0 <= threePlus$Auston <= 1
 0 <= threePlus$Jeff <= 1
 0 <= threePlus$Vera <= 1
 0 <= threePlus$John <= 1
 0 <= threePlus$Fen@24 <= 1
 0 <= threePlus$Sikdar <= 1
 0 <= conflict#1$An@26 <= +inf
 0 <= conflict#1$Au@27 <= +inf
 0 <= conflict#1$Jeff <= +inf
 0 <= conflict#1$Vera <= +inf
 0 <= conflict#1$John <= +inf
 0 <= conflict#1$Fe@2b <= +inf
 0 <= conflict#1$Si@2c <= +inf
 0 <= conflict#2$An@2d <= +inf
 0 <= conflict#2$Au@2e <= +inf
 0 <= conflict#2$Jeff <= +inf
 0 <= conflict#2$Vera <= +inf
 0 <= conflict#2$John <= +inf
 0 <= conflict#2$Fe@32 <= +inf
 0 <= conflict#2$Si@33 <= +inf
 0 <= conflict#3$An@34 <= +inf
 0 <= conflict#3$Au@35 <= +inf
 0 <= conflict#3$Jeff <= +inf
 0 <= conflict#3$Vera <= +inf
 0 <= conflict#3$John <= +inf
 0 <= conflict#3$Fe@39 <= +inf
 0 <= conflict#3$Si@3a <= +inf
 0 <= conflict#4$An@3b <= +inf
 0 <= conflict#4$Au@3c <= +inf
 0 <= conflict#4$Jeff <= +inf
 0 <= conflict#4$Vera <= +inf
 0 <= conflict#4$John <= +inf
 0 <= conflict#4$Fe@40 <= +inf
 0 <= conflict#4$Si@41 <= +inf
 0 <= conflict#5$An@42 <= +inf
 0 <= conflict#5$Au@43 <= +inf
 0 <= conflict#5$Jeff <= +inf
 0 <= conflict#5$Vera <= +inf
 0 <= conflict#5$John <= +inf
 0 <= conflict#5$Fe@47 <= +inf
 0 <= conflict#5$Si@48 <= +inf
 0 <= conflict#6$An@49 <= +inf
 0 <= conflict#6$Au@4a <= +inf
 0 <= conflict#6$Jeff <= +inf
 0 <= conflict#6$Vera <= +inf
 0 <= conflict#6$John <= +inf
 0 <= conflict#6$Fe@4e <= +inf
 0 <= conflict#6$Si@4f <= +inf
 0 <= conflict#7$An@50 <= +inf
 0 <= conflict#7$Au@51 <= +inf
 0 <= conflict#7$Jeff <= +inf
 0 <= conflict#7$Vera <= +inf
 0 <= conflict#7$John <= +inf
 0 <= conflict#7$Fe@55 <= +inf
 0 <= conflict#7$Si@56 <= +inf
 0 <= conflict#8$An@57 <= +inf
 0 <= conflict#8$Au@58 <= +inf
 0 <= conflict#8$Jeff <= +inf
 0 <= conflict#8$Vera <= +inf
 0 <= conflict#8$John <= +inf
 0 <= conflict#8$Fe@5c <= +inf
 0 <= conflict#8$Si@5d <= +inf
General
 examIsAt$SDD#1
 examIsAt$SDD#2
 examIsAt$SDD#3
 examIsAt$SDD#4
 examIsAt$SDD#5
 examIsAt$SDD#6
 examIsAt$SDD#7
 examIsAt$SDD#8
 examIsAt$CCN#1
 examIsAt$CCN#2
 examIsAt$CCN#3
 examIsAt$CCN#4
 examIsAt$CCN#5
 examIsAt$CCN#6
 examIsAt$CCN#7
 examIsAt$CCN#8
 examIsAt$CLA#1
 examIsAt$CLA#2
 examIsAt$CLA#3
 examIsAt$CLA#4
 examIsAt$CLA#5
 examIsAt$CLA#6
 examIsAt$CLA#7
 examIsAt$CLA#8
 twoPlus$Andrew
 twoPlus$Auston
 twoPlus$Jeff
 twoPlus$Vera
 twoPlus$John
 twoPlus$Fengyan
 twoPlus$Sikdar
 threePlus$Andrew
 threePlus$Auston
 threePlus$Jeff
 threePlus$Vera
 threePlus$John
 threePlus$Fen@24
 threePlus$Sikdar
End
